(set-logic QF_UF)
(declare-fun A0 () Bool)
(declare-fun A1 () Bool)
(declare-fun A2 () Bool)
(declare-fun A3 () Bool)
(declare-fun A4 () Bool)
(declare-fun A5 () Bool)
(declare-fun A6 () Bool)
(declare-fun A8 () Bool)
(declare-fun A9 () Bool)
(declare-fun A10 () Bool)
(declare-fun A12 () Bool)
(declare-fun A13 () Bool)
(declare-fun A14 () Bool)
(declare-fun A15 () Bool)
(declare-fun A16 () Bool)
(declare-fun A18 () Bool)
(declare-fun A19 () Bool)
(declare-fun A20 () Bool)
(declare-fun A21 () Bool)
(declare-fun A22 () Bool)
(declare-fun A23 () Bool)
(declare-fun A24 () Bool)
(assert (let ((.def_0 (not A19))) (let ((.def_1 (and A2 .def_0))) (let ((.def_2 (not .def_1))) (let ((.def_3 (not A2))) (let ((.def_4 (not A8))) (let ((.def_5 (and .def_4 .def_3))) (let ((.def_6 (not .def_5))) (let ((.def_7 (and .def_6 .def_2))) (let ((.def_8 (or .def_3 A14))) (let ((.def_9 (not .def_8))) (let ((.def_10 (not A3))) (let ((.def_11 (= .def_10 A4))) (let ((.def_12 (not .def_11))) (let ((.def_13 (or .def_12 .def_9))) (let ((.def_14 (and .def_13 .def_7))) (let ((.def_15 (not .def_14))) (let ((.def_16 (not A15))) (let ((.def_17 (or .def_16 A22))) (let ((.def_18 (not .def_17))) (let ((.def_19 (or A21 A19))) (let ((.def_20 (or .def_19 .def_18))) (let ((.def_21 (not .def_20))) (let ((.def_22 (not A4))) (let ((.def_23 (or .def_22 A15))) (let ((.def_24 (not .def_23))) (let ((.def_25 (not A5))) (let ((.def_26 (not A13))) (let ((.def_27 (and .def_26 .def_25))) (let ((.def_28 (not .def_27))) (let ((.def_29 (or .def_28 .def_24))) (let ((.def_30 (not .def_29))) (let ((.def_31 (and .def_30 .def_21))) (let ((.def_32 (and .def_31 .def_15))) (let ((.def_33 (not .def_32))) (let ((.def_34 (or .def_16 A0))) (let ((.def_35 (not .def_34))) (let ((.def_36 (not A24))) (let ((.def_37 (or A15 .def_36))) (let ((.def_38 (not .def_37))) (let ((.def_39 (and .def_38 .def_35))) (let ((.def_40 (not .def_39))) (let ((.def_41 (and A9 A1))) (let ((.def_42 (not .def_41))) (let ((.def_43 (not A16))) (let ((.def_44 (and A6 .def_43))) (let ((.def_45 (and .def_44 .def_42))) (let ((.def_46 (or .def_45 .def_40))) (let ((.def_47 (not .def_46))) (let ((.def_48 (or A23 A2))) (let ((.def_49 (not .def_48))) (let ((.def_50 (or .def_16 A1))) (let ((.def_51 (not .def_50))) (let ((.def_52 (and .def_51 .def_49))) (let ((.def_53 (not .def_52))) (let ((.def_54 (not A1))) (let ((.def_55 (and .def_10 .def_54))) (let ((.def_56 (or A14 .def_25))) (let ((.def_57 (not .def_56))) (let ((.def_58 (= .def_57 .def_55))) (let ((.def_59 (or .def_58 .def_53))) (let ((.def_60 (not .def_59))) (let ((.def_61 (and .def_60 .def_47))) (let ((.def_62 (or .def_61 .def_33))) (let ((.def_63 (not .def_62))) (let ((.def_64 (and A24 A9))) (let ((.def_65 (not .def_64))) (let ((.def_66 (not A0))) (let ((.def_67 (or .def_66 A1))) (let ((.def_68 (not .def_67))) (let ((.def_69 (or .def_68 .def_65))) (let ((.def_70 (not A14))) (let ((.def_71 (and A6 .def_70))) (let ((.def_72 (not .def_71))) (let ((.def_73 (and A4 A4))) (let ((.def_74 (not .def_73))) (let ((.def_75 (and .def_74 .def_72))) (let ((.def_76 (and .def_75 .def_69))) (let ((.def_77 (not .def_76))) (let ((.def_78 (not A20))) (let ((.def_79 (and .def_78 .def_78))) (let ((.def_80 (not .def_79))) (let ((.def_81 (or .def_10 .def_70))) (let ((.def_82 (= .def_81 .def_80))) (let ((.def_83 (not .def_82))) (let ((.def_84 (or A4 .def_36))) (let ((.def_85 (or .def_25 .def_70))) (let ((.def_86 (or .def_85 .def_84))) (let ((.def_87 (not .def_86))) (let ((.def_88 (and .def_87 .def_83))) (let ((.def_89 (not .def_88))) (let ((.def_90 (and .def_89 .def_77))) (let ((.def_91 (not .def_90))) (let ((.def_92 (or A22 .def_54))) (let ((.def_93 (not .def_92))) (let ((.def_94 (and A8 A4))) (let ((.def_95 (or .def_94 .def_93))) (let ((.def_96 (not .def_95))) (let ((.def_97 (not A18))) (let ((.def_98 (or A22 .def_97))) (let ((.def_99 (not .def_98))) (let ((.def_100 (and A14 A24))) (let ((.def_101 (or .def_100 .def_99))) (let ((.def_102 (or .def_101 .def_96))) (let ((.def_103 (not .def_102))) (let ((.def_104 (not A10))) (let ((.def_105 (or .def_36 .def_104))) (let ((.def_106 (not .def_105))) (let ((.def_107 (not A23))) (let ((.def_108 (or .def_107 A12))) (let ((.def_109 (not .def_108))) (let ((.def_110 (or .def_109 .def_106))) (let ((.def_111 (or A10 A2))) (let ((.def_112 (not .def_111))) (let ((.def_113 (and A2 A10))) (let ((.def_114 (or .def_113 .def_112))) (let ((.def_115 (not .def_114))) (let ((.def_116 (= .def_115 .def_110))) (let ((.def_117 (and .def_116 .def_103))) (let ((.def_118 (not .def_117))) (let ((.def_119 (or .def_118 .def_91))) (let ((.def_120 (and .def_119 .def_63))) (let ((.def_121 (not .def_120))) .def_121)))))))))))))))))))))))))))))))))))))))))))))))))))))))))))))))))))))))))))))))))))))))))))))))))))))))))))))))))))))))))))
(check-sat)
